(declare-fun e () String)
(declare-fun g () String)
(declare-fun b () String)
(declare-fun d () String)
(declare-fun f () String)
(declare-fun a () String)
(declare-fun h () String)
(assert (= (str.++ "hgb" g) (str.++ a h)))
(assert (= (str.++ h g "ff") e))
(assert (= (str.++ d b) (str.++ "gdg" a f f)))

(check-sat)
